<number of tasks>
100

<cycle time>
1000

<order strength>
0.2


<task times>
1 452
2 274
3 170
4 378
5 113
6 119
7 304
8 344
9 88
10 497
11 368
12 210
13 185
14 359
15 150
16 441
17 410
18 272
19 27
20 122
21 172
22 95
23 219
24 140
25 166
26 116
27 35
28 502
29 150
30 204
31 548
32 219
33 250
34 130
35 290
36 259
37 85
38 289
39 107
40 135
41 447
42 329
43 74
44 37
45 267
46 104
47 260
48 281
49 47
50 205
51 503
52 389
53 117
54 124
55 142
56 258
57 204
58 166
59 125
60 466
61 183
62 484
63 95
64 402
65 303
66 196
67 483
68 156
69 52
70 36
71 53
72 443
73 122
74 39
75 187
76 220
77 162
78 255
79 32
80 40
81 272
82 172
83 271
84 495
85 20
86 129
87 366
88 194
89 59
90 217
91 163
92 480
93 360
94 56
95 407
96 35
97 111
98 124
99 155
100 405

<precedence relations>
1,39
2,40
3,40
4,12
5,14
6,15
7,11
7,13
8,25
9,16
9,45
10,17
11,39
12,20
13,21
14,18
15,18
16,19
16,24
16,26
16,27
17,22
17,23
17,25
17,28
18,39
19,39
20,34
21,36
22,32
25,31
25,33
25,37
25,38
26,30
27,35
28,29
29,39
30,39
31,39
32,40
33,40
34,43
35,41
35,42
35,44
36,47
38,45
38,46
39,48
39,49
39,50
39,51
39,52
40,53
40,54
40,55
40,56
40,57
40,58
41,59
42,60
50,63
57,62
59,61
60,61
61,64
61,65
61,66
62,66
62,69
62,70
63,67
63,68
63,71
63,72
64,73
65,74
65,75
66,79
68,79
69,76
69,78
71,77
73,80
74,81
75,82
75,84
76,85
77,87
78,86
79,83
80,90
81,88
82,89
83,93
84,94
85,92
86,91
88,95
89,95
90,96
91,97
91,99
93,100
94,98

<end>
